71        
Coordinates from ORCA-job input E -6177.899135148838
C 61.082001 60.220001 57.713001
C 60.283432 61.468349 57.355888
O 59.115067 61.615829 58.138615
H 60.408089 59.365849 57.646931
H 61.881512 60.139889 56.976479
H 61.494785 60.263802 58.719471
H 60.912102 62.359283 57.437199
H 59.943996 61.386425 56.321487
H 59.366100 62.063763 58.952923
C 56.606998 66.438004 53.373001
C 56.399731 67.026276 54.761719
C 57.479282 66.679993 55.743202
C 57.401863 65.508278 56.497635
C 58.585468 67.511452 55.923859
C 58.393524 65.173584 57.411087
C 59.582378 67.192680 56.840080
C 59.472092 66.028969 57.590012
O 60.471317 65.734375 58.485706
H 55.793610 66.774712 52.730251
H 56.559669 65.349136 53.357380
H 57.555916 66.749657 52.933895
H 56.326237 68.112846 54.675812
H 55.444736 66.674522 55.148499
H 56.546612 64.854317 56.379929
H 58.663788 68.429474 55.353889
H 58.327293 64.267563 57.998238
H 60.428631 67.850456 56.994858
H 60.145184 65.032242 59.079166
C 60.669998 61.792000 52.139999
C 60.193295 61.951366 53.585449
C 60.498730 63.294556 54.253796
C 61.962025 63.419552 54.658772
N 62.137711 64.460876 55.675220
C 63.178318 64.428062 56.540302
N 64.335060 63.813618 56.152302
N 63.066509 64.912888 57.781307
H 60.493252 60.757660 51.845020
H 60.071400 62.419281 51.479469
H 61.726231 62.025196 52.010841
H 59.113937 61.792931 53.606758
H 60.627075 61.154331 54.198708
H 60.215057 64.123436 53.599312
H 59.885204 63.378281 55.156391
H 62.298534 62.457150 55.062229
H 62.578926 63.646042 53.784817
H 61.282066 64.857651 56.037270
H 64.555656 63.819729 55.170128
H 65.128029 63.935791 56.758770
H 62.185593 65.326653 58.079128
H 63.881203 65.235390 58.275154
N 62.395584 62.755249 64.853294
C 61.604023 62.650898 63.981121
C 59.186581 63.330154 61.293118
O 59.732620 63.585667 59.986362
C 60.629658 63.449814 61.102291
O 56.145966 63.630859 61.584621
C 58.354294 64.444550 61.866486
O 56.787472 65.333061 60.257423
C 57.028507 64.547157 61.136047
C 54.818317 63.716564 61.014996
C 53.976234 64.708069 61.788364
H 58.785698 62.326916 61.385178
H 61.127567 64.371651 61.389427
H 61.215256 62.540279 61.068363
H 58.170341 64.247009 62.921310
H 58.886688 65.391960 61.753578
H 54.909321 63.999687 59.968678
H 54.395870 62.714230 61.084202
H 52.969864 64.728142 61.374672
H 53.913288 64.410362 62.834415
H 54.399940 65.710373 61.723930
