20
frame 0
C -0.956 0.700 0.564
H -1.693 0.583 1.733
O 1.035 -1.241 -1.129
N 1.223 0.418 -0.971
C 1.200 -0.385 0.586
H -1.091 0.886 -1.219
O -0.443 -1.462 -1.890
N 0.101 -0.854 0.011
C 0.720 0.815 1.380
H -1.521 1.620 1.004
O 0.923 0.734 0.684
N 1.035 -1.822 -1.462
C -0.783 1.376 0.181
H -0.843 -0.625 -0.057
O -0.167 -0.166 -1.639
N 0.495 -0.760 -1.909
C 1.169 -1.402 -1.339
H -1.342 0.658 0.806
O -1.022 1.924 -0.489
N 1.454 -1.626 -1.576
20
frame 1
C -0.196 1.253 0.928
H -0.109 1.154 0.645
O -1.303 -0.852 -0.978
N 0.645 0.616 -0.842
C -1.851 1.705 0.510
H -0.838 -1.479 0.736
O -0.705 -1.015 0.150
N 0.133 1.222 -0.020
C -1.492 0.832 1.680
H 0.769 0.482 -1.576
O -1.353 1.401 0.725
N -0.811 -0.488 -0.769
C 1.455 0.690 1.603
H -1.279 1.253 0.116
O -0.608 -0.386 -1.846
N 0.705 -0.307 -0.118
C -1.473 -0.780 0.189
H 1.518 -0.727 -1.624
O 1.172 0.341 -0.449
N -1.356 0.275 -0.425
20
frame 2
C -1.699 -1.671 -1.213
H -0.011 -0.840 2.192
O -0.518 -1.031 -0.558
N -0.060 -0.645 1.359
C -0.435 -0.282 -1.326
H 0.715 2.127 -1.352
O -1.040 0.573 -1.040
N -1.598 -0.383 0.009
C 1.101 1.874 1.555
H 0.956 1.012 0.833
O -0.326 0.049 -1.330
N 1.054 2.172 -1.470
C -1.114 1.204 0.849
H 1.605 1.708 -1.127
O 1.008 1.573 1.514
N 0.308 -1.433 -0.178
C 0.265 0.026 -1.405
H -1.760 -1.335 -1.227
O 0.065 1.924 0.007
N -0.427 1.562 -0.781
20
frame 3
C -0.013 -1.400 -1.376
H 0.691 1.973 2.217
O 0.500 0.246 -0.792
N -1.017 2.039 0.356
C 1.811 0.348 2.151
H 0.304 0.733 1.573
O 1.631 2.167 1.392
N -1.242 0.741 0.827
C 1.273 1.377 1.396
H 1.548 0.182 0.613
O -0.355 -1.431 1.588
N -0.899 -0.049 0.177
C -0.645 0.098 -1.367
H -0.900 -1.106 0.032
O -1.565 -0.243 -0.400
N -0.626 -0.867 -1.254
C 0.093 -1.376 -0.740
H -0.325 -1.630 1.288
O -1.476 1.627 1.515
N 1.182 1.683 2.069
20
frame 4
C -1.258 0.933 1.713
H 1.312 -1.203 -0.326
O 2.030 -1.245 2.119
N 1.393 0.749 0.358
C 1.492 -1.504 -1.431
H 1.546 0.081 0.899
O 1.610 1.404 -0.866
N 0.681 2.181 -0.117
C 1.796 -0.750 1.933
H 0.286 0.683 2.290
O 1.582 -1.211 -0.074
N 0.199 0.381 1.994
C -0.929 1.461 1.616
H 0.119 0.035 -1.012
O 0.615 0.433 1.252
N -0.937 -0.245 -0.844
C -1.153 0.760 0.265
H 1.209 0.570 0.439
O -1.392 -1.428 -0.969
N 1.792 1.124 -0.574
20
frame 5
C 1.248 -0.141 2.313
H -0.282 0.518 0.872
O 0.097 1.557 -0.165
N -0.913 -0.039 0.228
C 1.853 2.227 1.326
H 2.020 0.707 1.781
O 0.395 -0.984 0.195
N 1.253 2.108 -0.301
C -0.303 -1.150 2.461
H -0.144 1.070 0.832
O 0.690 -0.291 -0.327
N 0.069 -0.741 -1.426
C 1.535 1.072 1.612
H 1.623 2.059 0.251
O 0.222 2.098 0.642
N 2.330 1.430 2.379
C 0.900 -0.672 1.387
H 1.594 -0.491 1.896
O -1.398 -1.333 -0.277
N -0.232 -0.196 0.819
20
frame 6
C 0.954 -0.872 2.566
H -1.093 1.698 -1.357
O 0.004 -0.671 0.861
N -1.251 2.509 0.393
C 2.230 2.004 -0.398
H -0.494 0.762 1.820
O -0.123 -0.778 1.364
N 2.542 1.561 0.678
C 1.969 -1.099 -0.924
H 2.338 -0.218 -0.381
O 0.636 0.325 -1.389
N 1.855 -0.303 -0.086
C 1.072 2.449 1.886
H -0.753 0.599 -0.234
O 1.404 1.110 1.965
N 1.042 -1.348 -0.208
C -0.835 0.186 1.642
H -0.952 -0.004 -1.226
O -1.224 0.464 -0.273
N 1.197 2.255 2.551
20
frame 7
C 2.463 2.697 1.716
H 0.992 -1.063 -0.326
O 1.734 -0.107 1.659
N -1.224 1.180 -0.293
C 1.445 -0.129 2.653
H -0.162 1.316 0.267
O 1.983 -0.342 -0.732
N -0.044 -1.145 1.619
C -0.500 -0.250 -0.631
H 1.195 1.175 1.630
O 1.441 1.472 2.620
N -0.668 1.518 2.020
C 1.633 2.025 1.728
H -1.034 2.331 1.992
O 0.156 1.058 -0.118
N 1.700 0.387 0.330
C 0.199 2.075 -1.227
H 2.315 -0.184 -0.762
O 2.217 -0.649 2.665
N 2.445 0.407 1.043
20
frame 8
C 0.581 1.656 1.952
H -0.956 -0.299 -0.433
O 1.428 0.128 1.353
N 1.088 -1.083 -0.993
C 0.247 -0.729 0.827
H -0.269 2.349 1.256
O 0.289 -0.664 1.257
N 1.866 0.870 2.546
C -0.195 1.302 1.491
H 1.228 -0.302 0.502
O 1.926 1.832 2.246
N 2.461 0.612 -0.111
C -1.028 -0.697 1.175
H 2.010 1.832 -0.420
O 2.242 -1.070 -0.236
N -0.303 1.321 0.218
C 1.751 2.688 -0.586
H 1.617 0.166 1.392
O 2.486 -0.477 -0.226
N 0.540 1.390 1.535
20
frame 9
C 0.912 2.547 -0.716
H 2.602 2.488 1.195
O 0.058 2.792 2.684
N -0.404 -1.079 1.229
C -0.643 -0.619 -0.611
H 2.159 1.560 0.783
O -0.072 2.795 0.671
N 1.107 0.543 0.024
C 2.730 -0.403 2.745
H 1.425 1.804 2.749
O -0.067 0.359 -0.882
N 0.778 2.212 2.874
C 0.857 1.257 -0.779
H 0.521 0.141 -0.441
O 0.195 2.784 -0.580
N -0.956 -0.285 -0.084
C 0.075 -0.266 -0.612
H -1.039 2.714 -0.209
O 2.339 2.578 0.992
N -0.219 -1.024 1.288
